InboundTrucks  = 10;
OutboundTrucks = 10;
InboundDoors   = 8;
OutboundDoors  = 8;
ReleaseTime    = [110,108,7,11,10,46,106,21,94,103];
UnloadTime     = [31,34,28,22,19,19,23,30,19,35];
LoadTime       = [14,14,6,11,13,5,8,8,5,11];
TransferTime   = [| 0,7,0,0,0,6,2,8,4,2 | 0,4,0,0,0,0,7,0,0,0 | 0,0,2,7,5,2,0,2,0,0 | 7,0,0,2,7,0,6,0,0,0 | 0,7,0,0,4,0,0,5,7,0 | 0,8,3,0,3,3,0,0,0,3 | 3,0,0,5,3,4,2,3,0,0 | 0,0,7,0,3,0,4,0,5,0 | 4,0,0,4,4,3,7,0,0,2 | 0,0,0,0,8,0,4,4,5,8 |];
